NAME : XML100_3156_05
DIMENSION : 101
NB_CLUSTERS : 15
CLUSTERING_ALG : KMeans
CLUSTERING_PARAMS : k(14)
CLUSTERS
1 0
2 12 39 44 70 75 90 96 98
3 7 28 49 63 88 93 95 97
4 15 54 57 81 85
5 10 20 31 56 79 83
6 48 50 55 60 77 89 91
7 19 80 82 84
8 18 35 41 42 59 66 73 74 76 78 99
9 5 25 33 36 37 38 47 51 53 58 67 86
10 1 3 6 22 34 68 94
11 4 21 23 27 32 61 62
12 17 26 40 64
13 8 14 16 24 30 46 65
14 2 9 11 13 52 69 100
15 29 43 45 71 72 87 92
EOF